%chk=ground_state_opt.chk
%mem=128GB
%nprocshared=4

# opt B3LYP/6-311g* scrf=(solvent=water) int=ultrafine Nosymm

Juglone ground state geometry optimization

0 1
O          2.84894       -0.54595       -0.09210
O          1.06724       -2.45361       -0.01286
O         -2.95430        1.04785        0.03083
C          0.44103       -0.18550       -0.00638
C         -0.61192        0.73123        0.03518
C          1.76013        0.28242       -0.04124
C          0.15661       -1.63247       -0.01197
C         -0.34562        2.10747        0.06988
C         -2.01261        0.26729        0.02365
C          2.02482        1.65082       -0.02853
C          0.97267        2.56390        0.03615
C         -1.25146       -2.06855       -0.01777
C         -2.25513       -1.18872       -0.00772
H         -1.16205        2.82568        0.11874
H          3.05323        2.00357       -0.06906
H          1.18067        3.63111        0.05492
H         -1.42702       -3.13808       -0.03559
H         -3.29273       -1.50158       -0.01988
H          2.53437       -1.47810       -0.06984


