%chk=ground_state_opt.chk
%mem=128GB
%nprocshared=4

#opt B3LYP/LANL2DZ scrf=(solvent=water) int=ultrafine Nosymm

Rose Bengal ground state geometry optimization

0 1
I          0.99440        0.13357       -0.13676
I          1.12643        4.81433       -0.04477
I          6.14720       -3.10719        0.07305
I          6.44162        7.83577       -0.29325
Cl         7.31008        2.18010       -2.79591
Cl        10.71023        2.58360        2.49494
Cl        10.44113        1.90729       -2.89569
Cl        12.12895        2.20766       -0.26022
O          3.21271        2.40331       -0.15260
O          2.98821       -2.36528       -0.04724
O          3.31124        7.14719        0.01227
O          8.14199        3.40244        3.36574
O          6.54985        2.01488        2.63359
C          6.06191        2.42082       -0.07574
C          5.26842        1.15667       -0.03548
C          5.37405        3.59434       -0.14603
C          7.56809        2.40648       -0.07800
C          3.87424        1.20720       -0.08590
C          3.90189        3.60689       -0.13030
C          5.88898       -0.10271        0.03516
C          8.32948        2.50943        1.12404
C          6.06266        4.88275       -0.25335
C          3.10588        0.02685       -0.07624
C          8.23899        2.25512       -1.31958
C          3.20796        4.76257       -0.09254
C          5.13203       -1.27827        0.02640
C          3.73934       -1.22002       -0.02985
C          5.40952        6.05333       -0.20437
C          9.73896        2.45894        1.05312
C          3.91859        6.08371       -0.07893
C          9.63967        2.17198       -1.37204
C         10.38669        2.28605       -0.19044
C          7.60671        2.59368        2.43509
H          6.96970       -0.18256        0.09843
H          7.13898        4.90178       -0.38096
H          3.59038       -3.13010       -0.01695
H          9.07936        3.65680        3.25917


