%chk=co2.chk
%mem=64GB
%nprocshared=4

# opt b3lyp/6-31g(d)

Carbon dioxide optimization

0 1
C
O 1 R
O 1 R 2 A

R = 1.2
A = 180.0
