%chk=RB.chk
%mem=128GB
%nprocshared=4

#opt M062X/6-311g* TDA=(triplet,root=1) scrf=(solvent=water) int=ultrafine Nosymm

Rose Bengal triplet state calculation

0 3
I          0.93301        0.07110        0.01281
I          1.06753        4.75090        0.10646
I          6.08381       -3.17284        0.23219
I          6.38154        7.77212       -0.13624
Cl         7.25503        2.11588       -2.64220
Cl        10.63143        2.46268        2.66801
Cl        10.39125        1.89560       -2.73986
Cl        12.06799        2.14927       -0.09081
O          3.15295        2.34001        0.00767
O          2.92544       -2.42900        0.10596
O          3.25230        7.08333        0.17792
O          8.05059        3.33938        3.50322
O          6.49688        1.89379        2.79208
C          6.00110        2.35362        0.07923
C          5.20682        1.09105        0.11055
C          5.31468        3.52964        0.02318
C          7.50556        2.33618        0.07656
C          3.81269        1.14283        0.06504
C          3.84282        3.54313        0.03591
C          5.82757       -0.16905        0.17350
C          8.26325        2.42447        1.27852
C          6.00510        4.81866       -0.07160
C          3.04442       -0.03695        0.07320
C          8.17908        2.19643       -1.16522
C          3.14914        4.69906        0.07220
C          5.06995       -1.34355        0.17144
C          3.67719       -1.28419        0.11896
C          5.35126        5.98937       -0.03104
C          9.67194        2.37189        1.21569
C          3.86011        6.02001        0.08826
C          9.58311        2.12543       -1.21260
C         10.32469        2.22019       -0.02739
C          7.53800        2.49673        2.58695
H          6.90850       -0.24975        0.22952
H          7.08235        4.83804       -0.18913
H          3.52720       -3.19357        0.14256
H          8.98397        3.60516        3.39053

