%chk=pNA.chk
%mem=128GB
%nprocshared=4

# opt M062X/6-311g* TDA=(triplet,root=1) scrf=(solvent=water) int=ultrafine Nosymm

4-nitroanisole triplet state calculation

0 3
O          1.07094        0.04759        0.04359
O         -1.52198        3.95468	-4.19053
O         -2.81358        4.30732	-2.45203
N         -1.86114        3.74980	-3.01597
C          0.42302        0.94081	-0.76395
C         -1.07879        2.78063	-2.23918
C          0.75449        1.20913	-2.09220
C         -0.67688        1.58028	-0.18471
C          0.00868        2.13037	-2.83560
C         -1.42697        2.50827	-0.91133
C          2.43944	 -0.19158	-0.26852
H          1.57885        0.70355	-2.58795
H         -0.94362        1.35938        0.84810
H          0.28285        2.32107	-3.87141
H         -2.27060        2.99982	-0.43227
H          2.85031	 -0.84438        0.50670
H          2.55050	 -0.71102	-1.22544
H          3.01053        0.74384	-0.25959


