%chk=water.chk
%mem=64GB
%nprocshared=4
# opt b3lyp/6-31g(d) 

Water molecule optimization

0 1
 O
 H 1 0.96
 H 1 0.96 2 104.5
