%chk=pNP.chk
%mem=128GB
%nprocshared=4

# opt(MaxCycles=500, CalcFC) M062X/6-311g* TDA=(triplet,root=1) scrf=(solvent=water) int=ultrafine Nosymm

4-nitrophenol triplet state calculation

0 3
O          2.25062        0.00033        0.01448
O         -3.90421        1.20911       -0.04180
O         -3.95859       -0.98397       -0.04125
N         -3.35469        0.09827       -0.03276
C         -1.88685        0.06034       -0.01340
C         -1.16186        1.25951       -0.00464
C         -1.22328       -1.17612       -0.00639
C          0.88784       -0.01324        0.00957
C          0.23317        1.21529        0.00727
C          0.17383       -1.20943        0.00470
H         -1.66144        2.22584       -0.00829
H         -1.77615       -2.11345       -0.01091
H          0.81010        2.13692        0.01250
H          0.68349       -2.16879        0.01019
H          2.57841       -0.91440       -0.00989


