%chk=oNA.chk
%mem=128GB
%nprocshared=4

# opt M062X/6-311g* TDA=(triplet,root=1) scrf=(pcm,solvent=water) SCF=(XQC,Tight,MaxCycle=512,Guess=Mix) int=ultrafine Nosymm

Ortho Nitroanisole triplet state calculation

0 3
O          0.91513       -0.18652       -0.22646
O          1.43667       -0.59879       -3.06434
O          2.47212        1.33808       -3.23452
N          1.55609        0.61089       -2.82569
C          0.18410        0.83004       -0.77863
C          0.49494        1.25582       -2.07568
C         -0.83107        1.50657       -0.09408
C         -0.20264        2.29916       -2.70281
C         -1.53939        2.54423       -0.71182
C         -1.23197        2.93519       -2.01443
C          0.26299       -0.93534        0.79681
H         -1.08646        1.25868        0.93192
H          0.04859        2.60932       -3.71430
H         -2.33224        3.05270       -0.16665
H         -1.79101        3.73921       -2.48750
H          0.81685       -1.86751        0.93995
H          0.27985       -0.38576        1.74334
H         -0.76341       -1.19813        0.51527


